p cnf 53 110
e 1 2 5 6 7 8 9 10 11 19 20 21 22 23 24 25 0
a 3 4 12 13 14 15 16 17 18 0
e 26 27 28 29 30 31 32 33 34 35 36 37 38 39 40 41 42 43 44 45 46 47 48 49 50 51 52 53 0
52 53 0
-52 -27 -4 -2 -1 0
-52 -27 1 2 4 0
-52 -26 1 2 3 0
-52 -26 -3 -2 -1 0
-52 26 27 0
-52 -28 -2 5 0
-52 -28 -5 2 0
-52 -28 -1 5 0
-52 -28 -5 1 0
-52 -29 -2 6 0
-52 -29 -6 2 0
-52 -29 -1 6 0
-52 -29 -6 1 0
-52 28 29 0
-53 50 51 0
-53 -51 -24 10 0
-53 -51 -10 24 0
-53 -51 -25 11 0
-53 -51 -11 25 0
-53 -51 -24 -8 -7 9 0
-53 -51 -9 -8 -7 24 0
-53 -51 -24 -9 -7 8 0
-53 -51 -7 8 9 24 0
-53 -51 -24 -9 -8 7 0
-53 -51 -8 7 9 24 0
-53 -51 -24 7 8 9 0
-53 -51 -9 7 8 24 0
-53 -51 -49 -25 7 8 0
-53 -51 -49 -25 8 24 0
-53 -51 -49 -25 7 24 0
-53 -51 -49 -25 24 0
-53 -51 -48 -25 8 0
-53 -51 -48 -25 7 0
-53 -51 -25 48 49 0
-53 -51 -8 -7 25 0
-53 -51 -24 -8 25 0
-53 -51 -24 -7 25 0
-53 -50 -19 10 0
-53 -50 -10 19 0
-53 -50 -20 11 0
-53 -50 -11 20 0
-53 -50 -21 7 8 0
-53 -50 -21 -8 -7 0
-53 -50 -8 7 21 0
-53 -50 -7 8 21 0
-53 -50 -9 19 21 0
-53 -50 -21 -19 -9 0
-53 -50 -19 9 21 0
-53 -50 -21 9 19 0
-53 -50 -22 7 0
-53 -50 -22 8 0
-53 -50 -8 -7 22 0
-53 -50 -23 21 0
-53 -50 -23 19 0
-53 -50 -21 -19 23 0
-53 -50 -20 22 23 0
-53 -50 -22 20 0
-53 -50 -23 20 0
-53 46 47 0
-53 -47 -45 -43 -18 -8 -7 0
-53 -47 -45 -43 -18 -17 -8 0
-53 -47 -45 -43 -18 -17 -7 0
-53 -47 -45 -43 -41 7 8 18 0
-53 -47 -45 -43 -41 8 17 18 0
-53 -47 -45 -43 -41 7 17 18 0
-53 -47 -45 -43 -41 17 18 0
-53 -47 -45 -43 -40 8 18 0
-53 -47 -45 -43 -40 7 18 0
-53 -47 -45 -43 18 40 41 0
-53 -47 -45 -42 7 8 9 17 0
-53 -47 -45 -42 -17 -9 7 8 0
-53 -47 -45 -42 -9 -8 7 17 0
-53 -47 -45 -42 -17 -8 7 9 0
-53 -47 -45 -42 -9 -7 8 17 0
-53 -47 -45 -42 -17 -7 8 9 0
-53 -47 -45 -42 -8 -7 9 17 0
-53 -47 -45 -42 -17 -9 -8 -7 0
-53 -47 -45 42 43 0
-53 -47 -44 10 11 17 18 0
-53 -47 -44 -18 -11 10 17 0
-53 -47 -44 -17 -10 11 18 0
-53 -47 -44 -18 -17 -11 -10 0
-53 -47 44 45 0
-53 -46 38 39 0
-53 -46 -38 -13 -12 -11 -10 0
-53 -46 -38 -12 -10 11 13 0
-53 -46 -38 -13 -11 10 12 0
-53 -46 -38 10 11 12 13 0
-53 -46 -39 36 37 0
-53 -46 -39 -37 -15 -13 0
-53 -46 -39 -37 -16 -13 0
-53 -46 -39 -37 13 15 16 0
-53 -46 -39 -36 34 35 0
-53 -46 -39 -36 -35 -16 -14 -12 0
-53 -46 -39 -36 -35 14 16 0
-53 -46 -39 -36 -35 12 16 0
-53 -46 -39 -36 -34 32 33 0
-53 -46 -39 -36 -34 -33 -15 -8 -7 0
-53 -46 -39 -36 -34 -33 7 15 0
-53 -46 -39 -36 -34 -33 8 15 0
-53 -46 -39 -36 -34 -32 30 31 0
-53 -46 -39 -36 -34 -32 -30 -14 -8 7 0
-53 -46 -39 -36 -34 -32 -30 -14 -7 8 0
-53 -46 -39 -36 -34 -32 -30 7 8 14 0
-53 -46 -39 -36 -34 -32 -30 -8 -7 14 0
-53 -46 -39 -36 -34 -32 -31 -14 -12 9 0
-53 -46 -39 -36 -34 -32 -31 9 12 14 0
-53 -46 -39 -36 -34 -32 -31 -14 -9 12 0
-53 -46 -39 -36 -34 -32 -31 -12 -9 14 0
